************************************************************************
file with basedata            : J12011_.BAS
initial value random generator: 794461535
************************************************************************
projects                      :  1
jobs (incl. supersource/sink ):  122
horizon                       :  660
RESOURCES
  - renewable                 :  4   R
  - nonrenewable              :  0   N
  - doubly constrained        :  0   D
************************************************************************
PROJECT INFORMATION:
pronr.  #jobs rel.date duedate tardcost  MPM-Time
    1    120      0       90       15       90
************************************************************************
PRECEDENCE RELATIONS:
jobnr.    #modes  #successors   successors
   1        1          3           2   3   4
   2        1          3          13  16  90
   3        1          3           5   7  12
   4        1          3           6   8  27
   5        1          2           9  11
   6        1          3          10  51  75
   7        1          2          14  15
   8        1          3          24  49  69
   9        1          1         111
  10        1          3          19  21  32
  11        1          3          22  38 104
  12        1          2          97 108
  13        1          3          17  23  39
  14        1          3          20  34  60
  15        1          1          64
  16        1          3          18  25  36
  17        1          2          27  56
  18        1          2          30  48
  19        1          3          28  52  72
  20        1          3          26  29  63
  21        1          3          55  58 120
  22        1          1          42
  23        1          1          87
  24        1          3          31  68 107
  25        1          1          35
  26        1          3          33  50  58
  27        1          1          35
  28        1          2          37  44
  29        1          3          45  62  76
  30        1          3          41  71 109
  31        1          2          47 113
  32        1          1          46
  33        1          3          40  59  70
  34        1          1          66
  35        1          1          92
  36        1          2          54  57
  37        1          1          94
  38        1          2          56 109
  39        1          3          67  88  96
  40        1          1          96
  41        1          2          74 119
  42        1          2          43  79
  43        1          1         105
  44        1          1          82
  45        1          2          61  83
  46        1          1          53
  47        1          1          73
  48        1          1          62
  49        1          1         110
  50        1          1         111
  51        1          1          84
  52        1          1         100
  53        1          2          65  98
  54        1          2          77  93
  55        1          1          71
  56        1          1         102
  57        1          1          84
  58        1          1         113
  59        1          1          85
  60        1          1          77
  61        1          2          91 118
  62        1          1         115
  63        1          1          85
  64        1          1         117
  65        1          1          86
  66        1          3          78 101 114
  67        1          1          80
  68        1          1          89
  69        1          1          72
  70        1          1          77
  71        1          1          83
  72        1          1         112
  73        1          1          99
  74        1          1         102
  75        1          2         106 121
  76        1          1          81
  77        1          1          91
  78        1          2         104 107
  79        1          1         116
  80        1          1         101
  81        1          1         100
  82        1          2         102 103
  83        1          1          89
  84        1          1         114
  85        1          1          99
  86        1          1          97
  87        1          1         117
  88        1          1          91
  89        1          1         111
  90        1          1         100
  91        1          2          94 114
  92        1          1         105
  93        1          1          95
  94        1          1          98
  95        1          1         118
  96        1          1         104
  97        1          1         103
  98        1          1         108
  99        1          1         103
 100        1          1         119
 101        1          1         105
 102        1          1         108
 103        1          1         112
 104        1          1         110
 105        1          1         109
 106        1          1         110
 107        1          2         115 116
 108        1          1         113
 109        1          1         117
 110        1          1         120
 111        1          1         112
 112        1          1         115
 113        1          1         121
 114        1          1         116
 115        1          1         121
 116        1          1         120
 117        1          1         118
 118        1          1         119
 119        1          1         122
 120        1          1         122
 121        1          1         122
 122        1          0        
************************************************************************
REQUESTS/DURATIONS:
jobnr. mode duration  R 1  R 2  R 3  R 4
------------------------------------------------------------------------
  1      1     0       0    0    0    0
  2      1     1       2    8    0    9
  3      1     9       0    4    7    9
  4      1     3       0    0    6    0
  5      1    10      10    0   10   10
  6      1     7       8    0    0    2
  7      1     9       9    0    1    9
  8      1     7       4    9    0    3
  9      1     3       0    6    1    6
 10      1     9       8    0    6   10
 11      1     5       1    2    2    7
 12      1     6       2    0    0    4
 13      1    10       0    6    7    1
 14      1     6       4    0    0    1
 15      1     5       8    5    0    5
 16      1     2       0    4    6    3
 17      1     8       0    0    0   10
 18      1     2       0    7    1    9
 19      1     7       8    0    8    4
 20      1     1       9   10    0    5
 21      1     2       3    6    0    1
 22      1     4       5    0   10    0
 23      1     3       5    1    4    5
 24      1     4       2    5    4    5
 25      1     4       8    7    0    9
 26      1     1       2    6    7    0
 27      1     4       0    2    9    2
 28      1     7       7    8    0   10
 29      1     5       5    4    8    3
 30      1     2       0   10    4    4
 31      1     5       4    0    2    0
 32      1    10       0    9    2    9
 33      1     5       0    2    6    5
 34      1     6       4    9    8    6
 35      1     7       0    8    1    1
 36      1     1       4    0    0    8
 37      1     6       3    1    0    6
 38      1     5       1    8    5    7
 39      1     8       8    0    5    6
 40      1     4       6    7   10    0
 41      1     2       3    4    4    5
 42      1     8       1    7    6    1
 43      1     9       4    3    4    7
 44      1     2       9    4   10    0
 45      1     4       0    5    0    0
 46      1     9       1    4    3    7
 47      1     4       7    3    0    6
 48      1    10       0    5    2    7
 49      1     9       9    0    3    0
 50      1     4       3    8   10    1
 51      1     6      10    0    5    8
 52      1     5       0    2    8    8
 53      1     6       2    0    0    3
 54      1     1       4    0    2    7
 55      1     8       2    0    0    7
 56      1     1       7    1    0   10
 57      1     1       5    5    6   10
 58      1     7       5    0    0    6
 59      1     4       0    0    0    6
 60      1    10       9    6    9    5
 61      1     4       9    0    4    0
 62      1     3      10    0    9    9
 63      1     7       0    3    8    3
 64      1     6       0    2    0   10
 65      1     9       9    0    8    3
 66      1     5       0    3    9    6
 67      1     3       0    0    5   10
 68      1     4       5    0    4    6
 69      1     9      10    0    5   10
 70      1     5       9    9    6    0
 71      1     9       4    2    2    0
 72      1    10       0    5    5    8
 73      1     8       3    0    5    9
 74      1     9       1    6    0    9
 75      1     3       5    0    0    3
 76      1    10       0    0    9    3
 77      1     2       0    0    0    6
 78      1     1       9    4    0    3
 79      1     6       2    5   10    0
 80      1     9       9    1    1    9
 81      1     1       7   10    1    1
 82      1     2       9    5    1    1
 83      1     1       4    7    7    1
 84      1     5       0    7    2    2
 85      1     7       3    7    4   10
 86      1     7       3    8    9    0
 87      1     2       1    5    8    9
 88      1     9       7    9    0    1
 89      1     8       0    4    0    5
 90      1     2       5    1    9    0
 91      1     7       0    8    0   10
 92      1     2       4    0    8    4
 93      1     7       8    6    0    6
 94      1     3       9    0    2    0
 95      1     7       8   10    5    2
 96      1     9       2    4   10   10
 97      1     9       0    6    5    2
 98      1     9      10    2    8    5
 99      1     1       3   10    3    3
100      1     7       7    5    0    0
101      1     9       8    5    6    1
102      1     6       8   10    9    8
103      1     3       2    9    0    0
104      1     7       0    4    1    7
105      1     3       5    4    1    0
106      1     8       8    9    2    0
107      1     5       6    8    8    6
108      1     5       0    1    0    6
109      1    10       2   10    0    0
110      1     4       7    3    0    8
111      1     9       6    2    7    0
112      1     6       9    8    4    1
113      1     7       8    4    7    1
114      1     4       6    5    6    9
115      1     6       2    0    3    5
116      1     2       4    0    4    4
117      1     3       7    5    3    9
118      1     7       6    4   10    3
119      1     5       6    3    9    2
120      1     5       1    0    0    4
121      1     6       6    5    3    4
122      1     0       0    0    0    0
************************************************************************
RESOURCEAVAILABILITIES:
  R 1  R 2  R 3  R 4
   18   17   18   20
************************************************************************
